0,7,1,3,6,6,8,3,9,7
7,0,8,1,5,3,7,8,4,7
1,8,0,3,1,9,5,4,3,8
3,1,3,0,2,1,1,7,4,4
6,5,1,2,0,5,3,8,1,6
6,3,9,1,5,0,4,6,3,3
8,7,5,1,3,4,0,7,8,6
3,8,4,7,8,6,7,0,6,2
9,4,3,4,1,3,8,6,0,9
7,7,8,4,6,3,6,2,9,0
